The Centers: 
[10,11,33,34,39,44,45,61,70,81,85,130,136,140,148,149,153,158,165,166,171,178,191,219,223,236,245,260,272,280,333,340,357,367,395,411,436,439,446,450,462,471,475,477,488,491,496,508,517,518,522,526,536,560,573,577,595,618,620,627,628,649,676,690,696,701,720,721,740,743,759,762,786,788,789,792,799,804,814,818,821,834,852,864,867,889,901,907,924,932,937,941,951,958,965,967,974,983,985,991,998,1016,1020,1026,1038,1045,1051,1064,1109,1126,1130,1136,1145,1147,1172,1175,1181,1183,1185,1189]
Total Cost: 143860